(set-option :produce-models true)
(set-logic QF_LRA)
(set-info :notes | Strip-packing problem.|)
(declare-fun x0 () Real)
(declare-fun y0 () Real)
(declare-fun x1 () Real)
(declare-fun y1 () Real)
(declare-fun x2 () Real)
(declare-fun y2 () Real)
(declare-fun x3 () Real)
(declare-fun y3 () Real)
(declare-fun x4 () Real)
(declare-fun y4 () Real)
(declare-fun x5 () Real)
(declare-fun y5 () Real)
(declare-fun x6 () Real)
(declare-fun y6 () Real)
(declare-fun x7 () Real)
(declare-fun y7 () Real)
(declare-fun x8 () Real)
(declare-fun y8 () Real)
(declare-fun x9 () Real)
(declare-fun y9 () Real)
(declare-fun x10 () Real)
(declare-fun y10 () Real)
(declare-fun x11 () Real)
(declare-fun y11 () Real)
(declare-fun z () Real)
(declare-fun c () Real)
(assert (and (= c z) (and (>= x0 0) 
(and (>= y0 0) 
(and (>= x1 0) 
(and (>= y1 0) 
(and (>= x2 0) 
(and (>= y2 0) 
(and (>= x3 0) 
(and (>= y3 0) 
(and (>= x4 0) 
(and (>= y4 0) 
(and (>= x5 0) 
(and (>= y5 0) 
(and (>= x6 0) 
(and (>= y6 0) 
(and (>= x7 0) 
(and (>= y7 0) 
(and (>= x8 0) 
(and (>= y8 0) 
(and (>= x9 0) 
(and (>= y9 0) 
(and (>= x10 0) 
(and (>= y10 0) 
(and (>= x11 0) 
(and (>= y11 0) 
(and (>= z 0) 
(and (>= c 0) 
(and (<= (+ x0 0.6128159952) z) 
(and (<= 0.9888968599 y0) 
(and (<= y0 1.73205080757) 
(and (<= x0 (- 3.1062436291 0.6128159952)) 
(and (>= x0 0) 
(and (<= (+ x1 0.3692041263) z) 
(and (<= 0.9658057873 y1) 
(and (<= y1 1.73205080757) 
(and (<= x1 (- 3.1062436291 0.3692041263)) 
(and (>= x1 0) 
(and (<= (+ x2 0.0216451416) z) 
(and (<= 0.945477345 y2) 
(and (<= y2 1.73205080757) 
(and (<= x2 (- 3.1062436291 0.0216451416)) 
(and (>= x2 0) 
(and (<= (+ x3 0.080757006) z) 
(and (<= 0.8408522011 y3) 
(and (<= y3 1.73205080757) 
(and (<= x3 (- 3.1062436291 0.080757006)) 
(and (>= x3 0) 
(and (<= (+ x4 0.9306315619) z) 
(and (<= 0.8297060245 y4) 
(and (<= y4 1.73205080757) 
(and (<= x4 (- 3.1062436291 0.9306315619)) 
(and (>= x4 0) 
(and (<= (+ x5 0.7693734271) z) 
(and (<= 0.7256369554 y5) 
(and (<= y5 1.73205080757) 
(and (<= x5 (- 3.1062436291 0.7693734271)) 
(and (>= x5 0) 
(and (<= (+ x6 0.8168515193) z) 
(and (<= 0.6539008957 y6) 
(and (<= y6 1.73205080757) 
(and (<= x6 (- 3.1062436291 0.8168515193)) 
(and (>= x6 0) 
(and (<= (+ x7 0.0582767548) z) 
(and (<= 0.5931455118 y7) 
(and (<= y7 1.73205080757) 
(and (<= x7 (- 3.1062436291 0.0582767548)) 
(and (>= x7 0) 
(and (<= (+ x8 0.0052198187) z) 
(and (<= 0.5870204581 y8) 
(and (<= y8 1.73205080757) 
(and (<= x8 (- 3.1062436291 0.0052198187)) 
(and (>= x8 0) 
(and (<= (+ x9 0.2218596451) z) 
(and (<= 0.5839992007 y9) 
(and (<= y9 1.73205080757) 
(and (<= x9 (- 3.1062436291 0.2218596451)) 
(and (>= x9 0) 
(and (<= (+ x10 0.2743382788) z) 
(and (<= 0.5161382567 y10) 
(and (<= y10 1.73205080757) 
(and (<= x10 (- 3.1062436291 0.2743382788)) 
(and (>= x10 0) 
(and (<= (+ x11 0.1425620911) z) 
(and (<= 0.1015020935 y11) 
(and (<= y11 1.73205080757) 
(and (<= x11 (- 3.1062436291 0.1425620911)) 
(and (>= x11 0) 
(and (<= c 3.1062436291) 
(and (or (<= (+ x0 0.6128159952) x1) (or (<= (+ x1 0.3692041263) x0) (or (>= (- y0 0.9888968599) y1) (or (>= (- y1 0.9658057873) y0))))) 
(and (or (<= (+ x0 0.6128159952) x2) (or (<= (+ x2 0.0216451416) x0) (or (>= (- y0 0.9888968599) y2) (or (>= (- y2 0.945477345) y0))))) 
(and (or (<= (+ x0 0.6128159952) x3) (or (<= (+ x3 0.080757006) x0) (or (>= (- y0 0.9888968599) y3) (or (>= (- y3 0.8408522011) y0))))) 
(and (or (<= (+ x0 0.6128159952) x4) (or (<= (+ x4 0.9306315619) x0) (or (>= (- y0 0.9888968599) y4) (or (>= (- y4 0.8297060245) y0))))) 
(and (or (<= (+ x0 0.6128159952) x5) (or (<= (+ x5 0.7693734271) x0) (or (>= (- y0 0.9888968599) y5) (or (>= (- y5 0.7256369554) y0))))) 
(and (or (<= (+ x0 0.6128159952) x6) (or (<= (+ x6 0.8168515193) x0) (or (>= (- y0 0.9888968599) y6) (or (>= (- y6 0.6539008957) y0))))) 
(and (or (<= (+ x0 0.6128159952) x7) (or (<= (+ x7 0.0582767548) x0) (or (>= (- y0 0.9888968599) y7) (or (>= (- y7 0.5931455118) y0))))) 
(and (or (<= (+ x0 0.6128159952) x8) (or (<= (+ x8 0.0052198187) x0) (or (>= (- y0 0.9888968599) y8) (or (>= (- y8 0.5870204581) y0))))) 
(and (or (<= (+ x0 0.6128159952) x9) (or (<= (+ x9 0.2218596451) x0) (or (>= (- y0 0.9888968599) y9) (or (>= (- y9 0.5839992007) y0))))) 
(and (or (<= (+ x0 0.6128159952) x10) (or (<= (+ x10 0.2743382788) x0) (or (>= (- y0 0.9888968599) y10) (or (>= (- y10 0.5161382567) y0))))) 
(and (or (<= (+ x0 0.6128159952) x11) (or (<= (+ x11 0.1425620911) x0) (or (>= (- y0 0.9888968599) y11) (or (>= (- y11 0.1015020935) y0))))) 
(and (or (<= (+ x1 0.3692041263) x2) (or (<= (+ x2 0.0216451416) x1) (or (>= (- y1 0.9658057873) y2) (or (>= (- y2 0.945477345) y1))))) 
(and (or (<= (+ x1 0.3692041263) x3) (or (<= (+ x3 0.080757006) x1) (or (>= (- y1 0.9658057873) y3) (or (>= (- y3 0.8408522011) y1))))) 
(and (or (<= (+ x1 0.3692041263) x4) (or (<= (+ x4 0.9306315619) x1) (or (>= (- y1 0.9658057873) y4) (or (>= (- y4 0.8297060245) y1))))) 
(and (or (<= (+ x1 0.3692041263) x5) (or (<= (+ x5 0.7693734271) x1) (or (>= (- y1 0.9658057873) y5) (or (>= (- y5 0.7256369554) y1))))) 
(and (or (<= (+ x1 0.3692041263) x6) (or (<= (+ x6 0.8168515193) x1) (or (>= (- y1 0.9658057873) y6) (or (>= (- y6 0.6539008957) y1))))) 
(and (or (<= (+ x1 0.3692041263) x7) (or (<= (+ x7 0.0582767548) x1) (or (>= (- y1 0.9658057873) y7) (or (>= (- y7 0.5931455118) y1))))) 
(and (or (<= (+ x1 0.3692041263) x8) (or (<= (+ x8 0.0052198187) x1) (or (>= (- y1 0.9658057873) y8) (or (>= (- y8 0.5870204581) y1))))) 
(and (or (<= (+ x1 0.3692041263) x9) (or (<= (+ x9 0.2218596451) x1) (or (>= (- y1 0.9658057873) y9) (or (>= (- y9 0.5839992007) y1))))) 
(and (or (<= (+ x1 0.3692041263) x10) (or (<= (+ x10 0.2743382788) x1) (or (>= (- y1 0.9658057873) y10) (or (>= (- y10 0.5161382567) y1))))) 
(and (or (<= (+ x1 0.3692041263) x11) (or (<= (+ x11 0.1425620911) x1) (or (>= (- y1 0.9658057873) y11) (or (>= (- y11 0.1015020935) y1))))) 
(and (or (<= (+ x2 0.0216451416) x3) (or (<= (+ x3 0.080757006) x2) (or (>= (- y2 0.945477345) y3) (or (>= (- y3 0.8408522011) y2))))) 
(and (or (<= (+ x2 0.0216451416) x4) (or (<= (+ x4 0.9306315619) x2) (or (>= (- y2 0.945477345) y4) (or (>= (- y4 0.8297060245) y2))))) 
(and (or (<= (+ x2 0.0216451416) x5) (or (<= (+ x5 0.7693734271) x2) (or (>= (- y2 0.945477345) y5) (or (>= (- y5 0.7256369554) y2))))) 
(and (or (<= (+ x2 0.0216451416) x6) (or (<= (+ x6 0.8168515193) x2) (or (>= (- y2 0.945477345) y6) (or (>= (- y6 0.6539008957) y2))))) 
(and (or (<= (+ x2 0.0216451416) x7) (or (<= (+ x7 0.0582767548) x2) (or (>= (- y2 0.945477345) y7) (or (>= (- y7 0.5931455118) y2))))) 
(and (or (<= (+ x2 0.0216451416) x8) (or (<= (+ x8 0.0052198187) x2) (or (>= (- y2 0.945477345) y8) (or (>= (- y8 0.5870204581) y2))))) 
(and (or (<= (+ x2 0.0216451416) x9) (or (<= (+ x9 0.2218596451) x2) (or (>= (- y2 0.945477345) y9) (or (>= (- y9 0.5839992007) y2))))) 
(and (or (<= (+ x2 0.0216451416) x10) (or (<= (+ x10 0.2743382788) x2) (or (>= (- y2 0.945477345) y10) (or (>= (- y10 0.5161382567) y2))))) 
(and (or (<= (+ x2 0.0216451416) x11) (or (<= (+ x11 0.1425620911) x2) (or (>= (- y2 0.945477345) y11) (or (>= (- y11 0.1015020935) y2))))) 
(and (or (<= (+ x3 0.080757006) x4) (or (<= (+ x4 0.9306315619) x3) (or (>= (- y3 0.8408522011) y4) (or (>= (- y4 0.8297060245) y3))))) 
(and (or (<= (+ x3 0.080757006) x5) (or (<= (+ x5 0.7693734271) x3) (or (>= (- y3 0.8408522011) y5) (or (>= (- y5 0.7256369554) y3))))) 
(and (or (<= (+ x3 0.080757006) x6) (or (<= (+ x6 0.8168515193) x3) (or (>= (- y3 0.8408522011) y6) (or (>= (- y6 0.6539008957) y3))))) 
(and (or (<= (+ x3 0.080757006) x7) (or (<= (+ x7 0.0582767548) x3) (or (>= (- y3 0.8408522011) y7) (or (>= (- y7 0.5931455118) y3))))) 
(and (or (<= (+ x3 0.080757006) x8) (or (<= (+ x8 0.0052198187) x3) (or (>= (- y3 0.8408522011) y8) (or (>= (- y8 0.5870204581) y3))))) 
(and (or (<= (+ x3 0.080757006) x9) (or (<= (+ x9 0.2218596451) x3) (or (>= (- y3 0.8408522011) y9) (or (>= (- y9 0.5839992007) y3))))) 
(and (or (<= (+ x3 0.080757006) x10) (or (<= (+ x10 0.2743382788) x3) (or (>= (- y3 0.8408522011) y10) (or (>= (- y10 0.5161382567) y3))))) 
(and (or (<= (+ x3 0.080757006) x11) (or (<= (+ x11 0.1425620911) x3) (or (>= (- y3 0.8408522011) y11) (or (>= (- y11 0.1015020935) y3))))) 
(and (or (<= (+ x4 0.9306315619) x5) (or (<= (+ x5 0.7693734271) x4) (or (>= (- y4 0.8297060245) y5) (or (>= (- y5 0.7256369554) y4))))) 
(and (or (<= (+ x4 0.9306315619) x6) (or (<= (+ x6 0.8168515193) x4) (or (>= (- y4 0.8297060245) y6) (or (>= (- y6 0.6539008957) y4))))) 
(and (or (<= (+ x4 0.9306315619) x7) (or (<= (+ x7 0.0582767548) x4) (or (>= (- y4 0.8297060245) y7) (or (>= (- y7 0.5931455118) y4))))) 
(and (or (<= (+ x4 0.9306315619) x8) (or (<= (+ x8 0.0052198187) x4) (or (>= (- y4 0.8297060245) y8) (or (>= (- y8 0.5870204581) y4))))) 
(and (or (<= (+ x4 0.9306315619) x9) (or (<= (+ x9 0.2218596451) x4) (or (>= (- y4 0.8297060245) y9) (or (>= (- y9 0.5839992007) y4))))) 
(and (or (<= (+ x4 0.9306315619) x10) (or (<= (+ x10 0.2743382788) x4) (or (>= (- y4 0.8297060245) y10) (or (>= (- y10 0.5161382567) y4))))) 
(and (or (<= (+ x4 0.9306315619) x11) (or (<= (+ x11 0.1425620911) x4) (or (>= (- y4 0.8297060245) y11) (or (>= (- y11 0.1015020935) y4))))) 
(and (or (<= (+ x5 0.7693734271) x6) (or (<= (+ x6 0.8168515193) x5) (or (>= (- y5 0.7256369554) y6) (or (>= (- y6 0.6539008957) y5))))) 
(and (or (<= (+ x5 0.7693734271) x7) (or (<= (+ x7 0.0582767548) x5) (or (>= (- y5 0.7256369554) y7) (or (>= (- y7 0.5931455118) y5))))) 
(and (or (<= (+ x5 0.7693734271) x8) (or (<= (+ x8 0.0052198187) x5) (or (>= (- y5 0.7256369554) y8) (or (>= (- y8 0.5870204581) y5))))) 
(and (or (<= (+ x5 0.7693734271) x9) (or (<= (+ x9 0.2218596451) x5) (or (>= (- y5 0.7256369554) y9) (or (>= (- y9 0.5839992007) y5))))) 
(and (or (<= (+ x5 0.7693734271) x10) (or (<= (+ x10 0.2743382788) x5) (or (>= (- y5 0.7256369554) y10) (or (>= (- y10 0.5161382567) y5))))) 
(and (or (<= (+ x5 0.7693734271) x11) (or (<= (+ x11 0.1425620911) x5) (or (>= (- y5 0.7256369554) y11) (or (>= (- y11 0.1015020935) y5))))) 
(and (or (<= (+ x6 0.8168515193) x7) (or (<= (+ x7 0.0582767548) x6) (or (>= (- y6 0.6539008957) y7) (or (>= (- y7 0.5931455118) y6))))) 
(and (or (<= (+ x6 0.8168515193) x8) (or (<= (+ x8 0.0052198187) x6) (or (>= (- y6 0.6539008957) y8) (or (>= (- y8 0.5870204581) y6))))) 
(and (or (<= (+ x6 0.8168515193) x9) (or (<= (+ x9 0.2218596451) x6) (or (>= (- y6 0.6539008957) y9) (or (>= (- y9 0.5839992007) y6))))) 
(and (or (<= (+ x6 0.8168515193) x10) (or (<= (+ x10 0.2743382788) x6) (or (>= (- y6 0.6539008957) y10) (or (>= (- y10 0.5161382567) y6))))) 
(and (or (<= (+ x6 0.8168515193) x11) (or (<= (+ x11 0.1425620911) x6) (or (>= (- y6 0.6539008957) y11) (or (>= (- y11 0.1015020935) y6))))) 
(and (or (<= (+ x7 0.0582767548) x8) (or (<= (+ x8 0.0052198187) x7) (or (>= (- y7 0.5931455118) y8) (or (>= (- y8 0.5870204581) y7))))) 
(and (or (<= (+ x7 0.0582767548) x9) (or (<= (+ x9 0.2218596451) x7) (or (>= (- y7 0.5931455118) y9) (or (>= (- y9 0.5839992007) y7))))) 
(and (or (<= (+ x7 0.0582767548) x10) (or (<= (+ x10 0.2743382788) x7) (or (>= (- y7 0.5931455118) y10) (or (>= (- y10 0.5161382567) y7))))) 
(and (or (<= (+ x7 0.0582767548) x11) (or (<= (+ x11 0.1425620911) x7) (or (>= (- y7 0.5931455118) y11) (or (>= (- y11 0.1015020935) y7))))) 
(and (or (<= (+ x8 0.0052198187) x9) (or (<= (+ x9 0.2218596451) x8) (or (>= (- y8 0.5870204581) y9) (or (>= (- y9 0.5839992007) y8))))) 
(and (or (<= (+ x8 0.0052198187) x10) (or (<= (+ x10 0.2743382788) x8) (or (>= (- y8 0.5870204581) y10) (or (>= (- y10 0.5161382567) y8))))) 
(and (or (<= (+ x8 0.0052198187) x11) (or (<= (+ x11 0.1425620911) x8) (or (>= (- y8 0.5870204581) y11) (or (>= (- y11 0.1015020935) y8))))) 
(and (or (<= (+ x9 0.2218596451) x10) (or (<= (+ x10 0.2743382788) x9) (or (>= (- y9 0.5839992007) y10) (or (>= (- y10 0.5161382567) y9))))) 
(and (or (<= (+ x9 0.2218596451) x11) (or (<= (+ x11 0.1425620911) x9) (or (>= (- y9 0.5839992007) y11) (or (>= (- y11 0.1015020935) y9))))) 
(and (or (<= (+ x10 0.2743382788) x11) (or (<= (+ x11 0.1425620911) x10) (or (>= (- y10 0.5161382567) y11) (or (>= (- y11 0.1015020935) y10))))) )))))))))))))))))))))))))))))))))))))))))))))))))))))))))))))))))))))))))))))))))))))))))))))))))))))))))))))))))))))))))))))))))))))))))))))))))))))))))))
(minimize c)
(check-sat)
(get-objectives)
(exit)
